0
Node Left Objective IInf Best_Integer Best_Bound ItCnt Gap
0+ 0 nan nan 136.4723 0.0000 nan 100.00%
0+ 0 nan nan 106.7571 0.0000 nan 100.00%
0 0 41.7256 16 106.7571 41.7256 150 60.92%
0+ 0 nan nan 56.9575 41.7256 nan 26.74%
0 0 43.7972 21 56.9575 Cuts:13 174 23.11%
0 0 44.5402 27 56.9575 Cuts:32 207 21.80%
0 0 45.1298 29 56.9575 Cuts:23 239 20.77%
0 0 45.2287 31 56.9575 Cuts:12 255 20.59%
0 0 45.2860 29 56.9575 Cuts:8 269 20.49%
0 0 45.3176 28 56.9575 Disjcuts:3 275 20.44%
0+ 0 nan nan 55.9587 45.3176 nan 19.02%
0 2 45.4879 27 55.9587 45.4888 275 18.71%
CPXPARAM_MIP_Cuts_Gomory-Disjunctive:Gomory 4
CPXPARAM_MIP_Cuts_Gomory-Disjunctive:Disjunctive 20
1
Node Left Objective IInf Best_Integer Best_Bound ItCnt Gap
0+ 0 nan nan 136.4723 0.0000 nan 100.00%
0+ 0 nan nan 109.7136 0.0000 nan 100.00%
0 0 0.0000 30 109.7136 0.0000 92 100.00%
0+ 0 nan nan 35.6502 0.0000 nan 100.00%
0 0 0.0000 28 35.6502 Disjcuts:1 93 100.00%
0+ 0 nan nan 27.8468 0.0000 nan 100.00%
0 0 0.0000 30 27.8468 Cuts:45 122 100.00%
0 0 0.0000 27 27.8468 Disjcuts:2 130 100.00%
0+ 0 nan nan 23.1279 0.0000 nan 100.00%
0 0 0.0000 30 23.1279 Cuts:30 202 100.00%
0+ 0 nan nan 18.4392 0.0000 nan 100.00%
0+ 0 nan nan 12.8818 0.0000 nan 100.00%
0 2 0.0000 29 12.8818 0.0000 202 100.00%
CPXPARAM_MIP_Cuts_Gomory-Disjunctive:Gomory 0
CPXPARAM_MIP_Cuts_Gomory-Disjunctive:Disjunctive 5
2
Node Left Objective IInf Best_Integer Best_Bound ItCnt Gap
0+ 0 nan nan 136.4723 0.0000 nan 100.00%
0+ 0 nan nan 74.9311 0.0000 nan 100.00%
0 0 29.9311 18 74.9311 29.9311 133 60.06%
0+ 0 nan nan 66.3953 29.9311 nan 54.92%
0 0 29.9311 14 66.3953 Cuts:11 149 54.92%
0+ 0 nan nan 56.1695 29.9311 nan 46.71%
0 0 31.4978 24 56.1695 Cuts:25 186 43.92%
0 0 33.2526 28 56.1695 Cuts:19 221 40.80%
0 0 33.8676 30 56.1695 Cuts:22 252 39.70%
0+ 0 nan nan 49.9569 33.8676 nan 32.21%
0 0 34.4103 28 49.9569 Cuts:20 286 31.12%
0 0 34.4322 27 49.9569 Disjcuts:3 292 31.08%
0+ 0 nan nan 48.4908 34.4322 nan 28.99%
0+ 0 nan nan 41.1691 34.4322 nan 16.36%
0 2 36.6303 9 41.1691 36.7913 292 10.63%
CPXPARAM_MIP_Cuts_Gomory-Disjunctive:Gomory 4
CPXPARAM_MIP_Cuts_Gomory-Disjunctive:Disjunctive 20
3
Node Left Objective IInf Best_Integer Best_Bound ItCnt Gap
0+ 0 nan nan 136.4723 0.0000 nan 100.00%
0+ 0 nan nan 84.2825 0.0000 nan 100.00%
0 0 0.0000 24 84.2825 0.0000 88 100.00%
0+ 0 nan nan 19.0770 0.0000 nan 100.00%
0 0 0.0000 27 19.0770 Cuts:30 145 100.00%
0+ 0 nan nan 8.0028 0.0000 nan 100.00%
0 2 0.0000 15 8.0028 0.0000 145 100.00%
CPXPARAM_MIP_Cuts_Gomory-Disjunctive:Gomory 0
CPXPARAM_MIP_Cuts_Gomory-Disjunctive:Disjunctive 0
4
Node Left Objective IInf Best_Integer Best_Bound ItCnt Gap
0+ 0 nan nan 115.1924 0.0000 nan 100.00%
0+ 0 nan nan 108.1598 0.0000 nan 100.00%
0+ 0 nan nan 98.2525 0.0000 nan 100.00%
0 0 47.1290 16 98.2525 47.1290 129 52.03%
0+ 0 nan nan 56.1818 47.1290 nan 16.11%
0 0 47.8685 16 56.1818 Cuts:11 152 14.80%
0 0 48.1500 18 56.1818 Cuts:16 183 14.30%
0 0 48.7664 25 56.1818 Cuts:14 210 13.20%
0+ 0 nan nan 55.2642 48.7664 nan 11.76%
0 0 48.9516 22 55.2642 Cuts:13 226 11.42%
0 0 49.1507 26 55.2642 Cuts:13 257 11.06%
0 0 49.2095 31 55.2642 Cuts:3 267 10.96%
0 0 49.2128 31 55.2642 Disjcuts:1 268 10.95%
0+ 0 nan nan 54.5576 49.2128 nan 9.80%
0+ 0 nan nan 54.5576 49.2128 nan 9.80%
0 2 49.6640 13 54.5576 49.6985 268 8.91%
CPXPARAM_MIP_Cuts_Gomory-Disjunctive:Gomory 1
CPXPARAM_MIP_Cuts_Gomory-Disjunctive:Disjunctive 20
5
Node Left Objective IInf Best_Integer Best_Bound ItCnt Gap
0+ 0 nan nan 115.1924 0.0000 nan 100.00%
0+ 0 nan nan 108.1598 0.0000 nan 100.00%
0 0 0.0000 29 108.1598 0.0000 91 100.00%
0+ 0 nan nan 50.1713 0.0000 nan 100.00%
0 0 0.0000 24 50.1713 Disjcuts:2 108 100.00%
0+ 0 nan nan 21.7861 0.0000 nan 100.00%
0 0 0.0000 27 21.7861 Cuts:34 178 100.00%
0+ 0 nan nan 20.8051 0.0000 nan 100.00%
0+ 0 nan nan 19.2258 0.0000 nan 100.00%
0+ 0 nan nan 17.4772 0.0000 nan 100.00%
0 2 0.0000 22 17.4772 0.0000 178 100.00%
CPXPARAM_MIP_Cuts_Gomory-Disjunctive:Gomory 0
CPXPARAM_MIP_Cuts_Gomory-Disjunctive:Disjunctive 2
6
Node Left Objective IInf Best_Integer Best_Bound ItCnt Gap
0+ 0 nan nan 115.1924 0.0000 nan 100.00%
0+ 0 nan nan 83.4808 0.0000 nan 100.00%
0 0 43.9374 9 83.4808 43.9374 117 47.37%
0+ 0 nan nan 50.7613 43.9374 nan 13.44%
0 0 43.9465 24 50.7613 Cuts:15 153 13.43%
0 0 44.4811 25 50.7613 Cuts:24 183 12.37%
0 0 45.0615 26 50.7613 Cuts:17 204 11.23%
0 0 45.3811 25 50.7613 Cuts:14 240 10.60%
0 0 45.5045 21 50.7613 Cuts:8 266 10.36%
0 0 45.5242 22 50.7613 Cuts:3 273 10.32%
0+ 0 nan nan 50.5355 45.5242 nan 9.92%
0+ 0 nan nan 49.2391 45.5242 nan 7.54%
0 2 45.7981 12 49.2391 45.8100 273 6.96%
CPXPARAM_MIP_Cuts_Gomory-Disjunctive:Gomory 5
CPXPARAM_MIP_Cuts_Gomory-Disjunctive:Disjunctive 15
7
Node Left Objective IInf Best_Integer Best_Bound ItCnt Gap
0+ 0 nan nan 115.1924 0.0000 nan 100.00%
0+ 0 nan nan 87.9605 0.0000 nan 100.00%
0 0 0.0000 25 87.9605 0.0000 90 100.00%
0+ 0 nan nan 28.3687 0.0000 nan 100.00%
0 0 0.0000 24 28.3687 Cuts:11 119 100.00%
0+ 0 nan nan 13.1158 0.0000 nan 100.00%
0 0 0.0000 27 13.1158 Cuts:38 172 100.00%
0 0 0.0000 26 13.1158 Disjcuts:6 196 100.00%
0+ 0 nan nan 13.0393 0.0000 nan 100.00%
0 2 0.0000 23 13.0393 0.0000 196 100.00%
CPXPARAM_MIP_Cuts_Gomory-Disjunctive:Gomory 0
CPXPARAM_MIP_Cuts_Gomory-Disjunctive:Disjunctive 3
8
Node Left Objective IInf Best_Integer Best_Bound ItCnt Gap
0+ 0 nan nan 131.6037 0.0000 nan 100.00%
0+ 0 nan nan 114.7061 0.0000 nan 100.00%
0+ 0 nan nan 109.8445 0.0000 nan 100.00%
0 0 58.1018 15 109.8445 58.1018 140 47.11%
0+ 0 nan nan 81.1413 58.1018 nan 28.39%
0 0 58.8781 24 81.1413 Cuts:24 166 27.44%
0 0 59.0138 30 81.1413 Cuts:30 203 27.27%
0 0 59.2943 29 81.1413 Cuts:9 224 26.92%
0 0 59.6711 29 81.1413 Cuts:14 241 26.46%
0 0 60.0074 28 81.1413 Cuts:12 265 26.05%
0+ 0 nan nan 80.8926 60.0074 nan 25.82%
0+ 0 nan nan 79.7559 60.0074 nan 24.76%
0 2 60.0074 28 79.7559 60.0689 265 24.68%
CPXPARAM_MIP_Cuts_Gomory-Disjunctive:Gomory 2
CPXPARAM_MIP_Cuts_Gomory-Disjunctive:Disjunctive 19
9
Node Left Objective IInf Best_Integer Best_Bound ItCnt Gap
0+ 0 nan nan 131.6037 0.0000 nan 100.00%
0+ 0 nan nan 115.2596 0.0000 nan 100.00%
0 0 0.0000 30 115.2596 0.0000 90 100.00%
0+ 0 nan nan 32.4537 0.0000 nan 100.00%
0 0 0.0000 30 32.4537 Cuts:21 103 100.00%
0 0 0.0000 31 32.4537 Cuts:44 174 100.00%
0+ 0 nan nan 28.8944 0.0000 nan 100.00%
0 2 0.0000 28 28.8944 0.0000 174 100.00%
CPXPARAM_MIP_Cuts_Gomory-Disjunctive:Gomory 2
CPXPARAM_MIP_Cuts_Gomory-Disjunctive:Disjunctive 1
10
Node Left Objective IInf Best_Integer Best_Bound ItCnt Gap
0+ 0 nan nan 131.6037 0.0000 nan 100.00%
0+ 0 nan nan 101.5820 0.0000 nan 100.00%
0 0 41.3973 11 101.5820 41.3973 130 59.25%
0+ 0 nan nan 85.5775 41.3973 nan 51.63%
0 0 41.5069 20 85.5775 Cuts:13 155 51.50%
0 0 42.5284 25 85.5775 Cuts:18 176 50.30%
0 0 43.0346 27 85.5775 Disjcuts:7 188 49.71%
0+ 0 nan nan 85.5509 43.0346 nan 49.70%
0 0 43.5087 24 85.5509 Disjcuts:4 203 49.14%
0 0 43.6060 23 85.5509 Disjcuts:5 214 49.03%
0 0 43.7098 27 85.5509 Disjcuts:3 223 48.91%
0 0 43.8489 26 85.5509 Disjcuts:3 234 48.75%
0 0 44.0754 28 85.5509 Disjcuts:2 242 48.48%
0 0 44.1301 28 85.5509 Disjcuts:2 245 48.42%
0+ 0 nan nan 69.6417 44.1301 nan 36.63%
0+ 0 nan nan 69.0592 44.1301 nan 36.10%
0 2 44.1301 28 69.0592 44.1725 245 36.04%
CPXPARAM_MIP_Cuts_Gomory-Disjunctive:Gomory 3
CPXPARAM_MIP_Cuts_Gomory-Disjunctive:Disjunctive 17
11
Node Left Objective IInf Best_Integer Best_Bound ItCnt Gap
0+ 0 nan nan 131.6037 0.0000 nan 100.00%
0+ 0 nan nan 110.1690 0.0000 nan 100.00%
0 0 0.0000 26 110.1690 0.0000 82 100.00%
0+ 0 nan nan 60.2130 0.0000 nan 100.00%
0 0 0.0000 23 60.2130 Cuts:5 92 100.00%
0+ 0 nan nan 47.3645 0.0000 nan 100.00%
0 0 0.0000 26 47.3645 Cuts:36 141 100.00%
0+ 0 nan nan 29.0121 0.0000 nan 100.00%
0+ 0 nan nan 22.9199 0.0000 nan 100.00%
0 2 0.0000 19 22.9199 0.0000 141 100.00%
CPXPARAM_MIP_Cuts_Gomory-Disjunctive:Gomory 1
CPXPARAM_MIP_Cuts_Gomory-Disjunctive:Disjunctive 0
12
Node Left Objective IInf Best_Integer Best_Bound ItCnt Gap
0+ 0 nan nan 110.3567 0.0000 nan 100.00%
0+ 0 nan nan 99.5973 0.0000 nan 100.00%
0 0 42.3231 15 99.5973 42.3231 151 57.51%
0+ 0 nan nan 55.9495 42.3231 nan 24.35%
0 0 43.5586 22 55.9495 Cuts:26 178 22.15%
0 0 44.2904 30 55.9495 Cuts:31 215 20.84%
0 0 44.4793 30 55.9495 Disjcuts:11 227 20.50%
0 0 45.0599 31 55.9495 Disjcuts:7 248 19.46%
0 0 45.2101 32 55.9495 Disjcuts:4 262 19.19%
0 2 45.3469 26 55.9495 45.4619 262 18.74%
CPXPARAM_MIP_Cuts_Gomory-Disjunctive:Gomory 1
CPXPARAM_MIP_Cuts_Gomory-Disjunctive:Disjunctive 20
13
Node Left Objective IInf Best_Integer Best_Bound ItCnt Gap
0+ 0 nan nan 110.3567 0.0000 nan 100.00%
0+ 0 nan nan 99.8555 0.0000 nan 100.00%
0 0 0.0000 26 99.8555 0.0000 87 100.00%
0+ 0 nan nan 36.0783 0.0000 nan 100.00%
0 0 0.0000 28 36.0783 Cuts:35 125 100.00%
0 0 0.0000 27 36.0783 Cuts:16 152 100.00%
0+ 0 nan nan 29.0673 0.0000 nan 100.00%
0+ 0 nan nan 25.5402 0.0000 nan 100.00%
0+ 0 nan nan 18.7027 0.0000 nan 100.00%
0 2 0.0000 26 18.7027 0.0000 152 100.00%
CPXPARAM_MIP_Cuts_Gomory-Disjunctive:Gomory 0
CPXPARAM_MIP_Cuts_Gomory-Disjunctive:Disjunctive 0
14
Node Left Objective IInf Best_Integer Best_Bound ItCnt Gap
0+ 0 nan nan 110.3567 0.0000 nan 100.00%
0+ 0 nan nan 83.1075 0.0000 nan 100.00%
0 0 32.4848 16 83.1075 32.4848 121 60.91%
0+ 0 nan nan 57.6461 32.4848 nan 43.65%
0 0 32.5726 24 57.6461 Cuts:5 144 43.50%
0 0 33.7386 25 57.6461 Cuts:43 179 41.47%
0 0 34.9319 23 57.6461 Cuts:25 208 39.40%
0 0 35.5988 27 57.6461 Cuts:12 232 38.25%
0 0 36.3759 28 57.6461 Cuts:12 268 36.90%
0 0 36.4294 27 57.6461 Disjcuts:1 273 36.81%
0+ 0 nan nan 51.1684 36.4294 nan 28.80%
0 2 36.4294 27 51.1684 36.4698 273 28.73%
CPXPARAM_MIP_Cuts_Gomory-Disjunctive:Gomory 3
CPXPARAM_MIP_Cuts_Gomory-Disjunctive:Disjunctive 18
15
Node Left Objective IInf Best_Integer Best_Bound ItCnt Gap
0+ 0 nan nan 110.3567 0.0000 nan 100.00%
0+ 0 nan nan 94.4733 0.0000 nan 100.00%
0 0 0.0000 24 94.4733 0.0000 83 100.00%
0+ 0 nan nan 35.3044 0.0000 nan 100.00%
0 0 0.0000 15 35.3044 Disjcuts:1 87 100.00%
0+ 0 nan nan 16.7215 0.0000 nan 100.00%
0 0 0.0000 28 16.7215 Cuts:23 152 100.00%
0+ 0 nan nan 15.8555 0.0000 nan 100.00%
0 0 0.0000 22 15.8555 Disjcuts:3 156 100.00%
0 0 0.0000 28 15.8555 Cuts:34 213 100.00%
0+ 0 nan nan 13.3966 0.0000 nan 100.00%
0 2 0.0000 23 13.3966 0.0000 213 100.00%
CPXPARAM_MIP_Cuts_Gomory-Disjunctive:Gomory 0
CPXPARAM_MIP_Cuts_Gomory-Disjunctive:Disjunctive 2
16
Node Left Objective IInf Best_Integer Best_Bound ItCnt Gap
0+ 0 nan nan 109.2984 0.0000 nan 100.00%
0+ 0 nan nan 98.2414 0.0000 nan 100.00%
0 0 47.2432 17 98.2414 47.2432 152 51.91%
0+ 0 nan nan 88.2522 47.2432 nan 46.47%
0 0 47.5487 23 88.2522 Cuts:13 177 46.12%
0+ 0 nan nan 77.8823 47.5487 nan 38.95%
0 0 47.7878 29 77.8823 Cuts:21 205 38.64%
0 0 47.9805 32 77.8823 Cuts:21 229 38.39%
0 0 48.8361 29 77.8823 Disjcuts:9 254 37.30%
0 0 49.2125 32 77.8823 Cuts:11 275 36.81%
0 0 49.3306 32 77.8823 Disjcuts:2 280 36.66%
0+ 0 nan nan 71.4822 49.3306 nan 30.99%
0 0 49.4064 32 71.4822 Disjcuts:2 287 30.88%
0 0 49.4098 32 71.4822 Disjcuts:1 289 30.88%
0+ 0 nan nan 70.6820 49.4098 nan 30.10%
0+ 0 nan nan 69.0364 49.4098 nan 28.43%
0+ 0 nan nan 63.8355 49.4098 nan 22.60%
0 2 49.4098 32 63.8355 49.5158 289 22.43%
CPXPARAM_MIP_Cuts_Gomory-Disjunctive:Gomory 2
CPXPARAM_MIP_Cuts_Gomory-Disjunctive:Disjunctive 17
17
Node Left Objective IInf Best_Integer Best_Bound ItCnt Gap
0+ 0 nan nan 109.2984 0.0000 nan 100.00%
0+ 0 nan nan 98.8898 0.0000 nan 100.00%
0 0 0.0000 28 98.8898 0.0000 89 100.00%
0+ 0 nan nan 29.7958 0.0000 nan 100.00%
0 0 0.0000 31 29.7958 Cuts:33 164 100.00%
0 0 0.4387 34 29.7958 Cuts:33 236 98.53%
0 0 1.9864 33 29.7958 Cuts:37 290 93.33%
0+ 0 nan nan 22.8168 1.9864 nan 91.29%
0 0 2.4366 35 22.8168 Cuts:34 314 89.32%
0 0 3.3617 36 22.8168 Cuts:38 349 85.27%
0 0 3.3703 36 22.8168 Cuts:2 351 85.23%
0 2 3.3703 36 22.8168 3.3882 351 85.15%
CPXPARAM_MIP_Cuts_Gomory-Disjunctive:Gomory 0
CPXPARAM_MIP_Cuts_Gomory-Disjunctive:Disjunctive 16
18
Node Left Objective IInf Best_Integer Best_Bound ItCnt Gap
0+ 0 nan nan 109.2984 0.0000 nan 100.00%
0+ 0 nan nan 89.2500 0.0000 nan 100.00%
0 0 50.2018 12 89.2500 50.2018 126 43.75%
0+ 0 nan nan 65.9464 50.2018 nan 23.87%
0 0 50.2018 9 65.9464 Cuts:5 135 23.87%
0 0 50.3765 26 65.9464 Cuts:11 166 23.61%
0 0 51.2629 25 65.9464 Cuts:10 179 22.27%
0 0 51.5599 25 65.9464 Cuts:6 193 21.82%
0 0 51.9857 24 65.9464 Disjcuts:4 207 21.17%
0 0 52.0261 24 65.9464 Disjcuts:1 212 21.11%
0 0 52.2026 26 65.9464 Disjcuts:2 220 20.84%
0 0 52.2475 25 65.9464 Disjcuts:2 226 20.77%
0+ 0 nan nan 58.9515 52.2475 nan 11.37%
0+ 0 nan nan 58.9515 52.2475 nan 11.37%
0 2 53.0747 11 58.9515 53.0749 226 9.97%
CPXPARAM_MIP_Cuts_Gomory-Disjunctive:Gomory 7
CPXPARAM_MIP_Cuts_Gomory-Disjunctive:Disjunctive 16
19
Node Left Objective IInf Best_Integer Best_Bound ItCnt Gap
0+ 0 nan nan 109.2984 0.0000 nan 100.00%
0+ 0 nan nan 95.6739 0.0000 nan 100.00%
0 0 0.0000 26 95.6739 0.0000 87 100.00%
0+ 0 nan nan 34.5842 0.0000 nan 100.00%
0 0 0.0000 27 34.5842 Cuts:38 124 100.00%
0 0 0.0000 26 34.5842 Cuts:14 185 100.00%
0+ 0 nan nan 20.5515 0.0000 nan 100.00%
0+ 0 nan nan 19.9779 0.0000 nan 100.00%
0 2 0.0000 26 19.9779 0.0000 185 100.00%
CPXPARAM_MIP_Cuts_Gomory-Disjunctive:Gomory 1
CPXPARAM_MIP_Cuts_Gomory-Disjunctive:Disjunctive 6
20
Node Left Objective IInf Best_Integer Best_Bound ItCnt Gap
0+ 0 nan nan 93.3792 0.0000 nan 100.00%
0+ 0 nan nan 84.7371 0.0000 nan 100.00%
0 0 27.9048 17 84.7371 27.9048 138 67.07%
0+ 0 nan nan 34.8222 27.9048 nan 19.87%
0 0 28.5856 15 34.8222 Cuts:25 162 17.91%
0 0 28.8236 17 34.8222 Cuts:17 182 17.23%
0 0 28.9523 26 34.8222 Cuts:15 217 16.86%
0 0 29.2094 27 34.8222 Cuts:8 244 16.12%
0 0 29.2620 28 34.8222 Disjcuts:6 264 15.97%
0 2 29.3777 14 34.8222 29.3880 264 15.61%
CPXPARAM_MIP_Cuts_Gomory-Disjunctive:Gomory 1
CPXPARAM_MIP_Cuts_Gomory-Disjunctive:Disjunctive 18
21
Node Left Objective IInf Best_Integer Best_Bound ItCnt Gap
0+ 0 nan nan 93.3792 0.0000 nan 100.00%
0+ 0 nan nan 84.7371 0.0000 nan 100.00%
0 0 0.0000 29 84.7371 0.0000 97 100.00%
0+ 0 nan nan 39.5455 0.0000 nan 100.00%
0 0 0.0000 25 39.5455 Cuts:13 112 100.00%
0+ 0 nan nan 21.4570 0.0000 nan 100.00%
0 0 0.0000 24 21.4570 Cuts:33 148 100.00%
0+ 0 nan nan 14.4615 0.0000 nan 100.00%
0 0 0.0000 23 14.4615 Cuts:12 180 100.00%
0+ 0 nan nan 13.2624 0.0000 nan 100.00%
0 2 0.0000 23 13.2624 0.0000 180 100.00%
CPXPARAM_MIP_Cuts_Gomory-Disjunctive:Gomory 0
CPXPARAM_MIP_Cuts_Gomory-Disjunctive:Disjunctive 2
22
Node Left Objective IInf Best_Integer Best_Bound ItCnt Gap
0+ 0 nan nan 93.3792 0.0000 nan 100.00%
0+ 0 nan nan 79.8100 0.0000 nan 100.00%
0 0 25.8187 13 79.8100 25.8187 129 67.65%
0+ 0 nan nan 31.0782 25.8187 nan 16.92%
0 0 26.2295 18 31.0782 Cuts:15 165 15.60%
0 0 26.9647 26 31.0782 Cuts:14 199 13.24%
0 0 27.1359 21 31.0782 Cuts:15 222 12.69%
0 0 27.6058 22 31.0782 Cuts:11 254 11.17%
0+ 0 nan nan 28.5540 27.6058 nan 3.32%
0 0 27.6618 18 28.5540 Cuts:13 273 3.12%
0+ 0 nan nan 28.5540 27.6618 nan 3.12%
0 2 27.7461 10 28.5540 27.7541 273 2.80%
CPXPARAM_MIP_Cuts_Gomory-Disjunctive:Gomory 3
CPXPARAM_MIP_Cuts_Gomory-Disjunctive:Disjunctive 12
23
Node Left Objective IInf Best_Integer Best_Bound ItCnt Gap
0+ 0 nan nan 93.3792 0.0000 nan 100.00%
0+ 0 nan nan 79.4789 0.0000 nan 100.00%
0 0 0.0000 24 79.4789 0.0000 85 100.00%
0+ 0 nan nan 12.1073 0.0000 nan 100.00%
0 0 0.0000 20 12.1073 Disjcuts:1 92 100.00%
0+ 0 nan nan 11.8985 0.0000 nan 100.00%
0 0 0.0000 24 11.8985 Cuts:26 141 100.00%
0+ 0 nan nan 11.7987 0.0000 nan 100.00%
0 0 0.0000 19 11.7987 Disjcuts:8 162 100.00%
0+ 0 nan nan 10.3978 0.0000 nan 100.00%
0 0 0.0000 27 10.3978 Cuts:31 217 100.00%
0+ 0 nan nan 8.3481 0.0000 nan 100.00%
0+ 0 nan nan 8.1671 0.0000 nan 100.00%
0+ 0 nan nan 7.7979 0.0000 nan 100.00%
0 2 0.0000 22 7.7979 0.0000 217 100.00%
CPXPARAM_MIP_Cuts_Gomory-Disjunctive:Gomory 0
CPXPARAM_MIP_Cuts_Gomory-Disjunctive:Disjunctive 2
24
Node Left Objective IInf Best_Integer Best_Bound ItCnt Gap
0+ 0 nan nan 94.5045 0.0000 nan 100.00%
0+ 0 nan nan 83.7373 0.0000 nan 100.00%
0 0 30.0098 21 83.7373 30.0098 137 64.16%
0+ 0 nan nan 42.1069 30.0098 nan 28.73%
0 0 31.0963 18 42.1069 Cuts:17 164 26.15%
0 0 32.1874 32 42.1069 Cuts:22 211 23.56%
0 0 32.9361 28 42.1069 Cuts:23 248 21.78%
0 0 33.0444 31 42.1069 Disjcuts:4 264 21.52%
0 0 33.2280 28 42.1069 Disjcuts:9 284 21.09%
0+ 0 nan nan 40.9870 33.2280 nan 18.93%
0+ 0 nan nan 38.6714 33.2280 nan 14.08%
0 2 33.6977 20 38.6714 33.7334 284 12.77%
CPXPARAM_MIP_Cuts_Gomory-Disjunctive:Gomory 1
CPXPARAM_MIP_Cuts_Gomory-Disjunctive:Disjunctive 17
25
Node Left Objective IInf Best_Integer Best_Bound ItCnt Gap
0+ 0 nan nan 94.5045 0.0000 nan 100.00%
0+ 0 nan nan 83.7373 0.0000 nan 100.00%
0 0 0.0000 27 83.7373 0.0000 93 100.00%
0+ 0 nan nan 26.7172 0.0000 nan 100.00%
0 0 0.0000 21 26.7172 Disjcuts:1 94 100.00%
0+ 0 nan nan 17.3722 0.0000 nan 100.00%
0 0 0.0000 32 17.3722 Cuts:32 160 100.00%
0+ 0 nan nan 17.2767 0.0000 nan 100.00%
0+ 0 nan nan 13.7683 0.0000 nan 100.00%
0+ 0 nan nan 13.6862 0.0000 nan 100.00%
0 2 0.0000 25 13.6862 0.0000 160 100.00%
CPXPARAM_MIP_Cuts_Gomory-Disjunctive:Gomory 0
CPXPARAM_MIP_Cuts_Gomory-Disjunctive:Disjunctive 0
26
Node Left Objective IInf Best_Integer Best_Bound ItCnt Gap
0+ 0 nan nan 94.5045 0.0000 nan 100.00%
0+ 0 nan nan 81.5690 0.0000 nan 100.00%
0 0 30.5909 7 81.5690 30.5909 124 62.50%
0+ 0 nan nan 37.1692 30.5909 nan 17.70%
0 0 30.5909 14 37.1692 Cuts:9 143 17.70%
0 0 31.8171 24 37.1692 Cuts:23 183 14.40%
0 0 32.5507 21 37.1692 Cuts:8 209 12.43%
0 0 32.6799 21 37.1692 Cuts:9 224 12.08%
0 0 33.1527 22 37.1692 Cuts:10 245 10.81%
0 0 33.3495 20 37.1692 Cuts:13 267 10.28%
0 2 33.6472 7 37.1692 33.6969 267 9.34%
CPXPARAM_MIP_Cuts_Gomory-Disjunctive:Gomory 7
CPXPARAM_MIP_Cuts_Gomory-Disjunctive:Disjunctive 10
27
Node Left Objective IInf Best_Integer Best_Bound ItCnt Gap
0+ 0 nan nan 94.5045 0.0000 nan 100.00%
0+ 0 nan nan 84.3474 0.0000 nan 100.00%
0 0 0.0000 24 84.3474 0.0000 84 100.00%
0+ 0 nan nan 19.2212 0.0000 nan 100.00%
0 0 0.0000 19 19.2212 Cuts:14 93 100.00%
0+ 0 nan nan 10.1332 0.0000 nan 100.00%
0 0 0.0000 22 10.1332 Cuts:26 154 100.00%
0+ 0 nan nan 10.1169 0.0000 nan 100.00%
0+ 0 nan nan 7.3004 0.0000 nan 100.00%
0 2 0.0000 17 7.3004 0.0000 154 100.00%
CPXPARAM_MIP_Cuts_Gomory-Disjunctive:Gomory 0
CPXPARAM_MIP_Cuts_Gomory-Disjunctive:Disjunctive 0
28
Node Left Objective IInf Best_Integer Best_Bound ItCnt Gap
0+ 0 nan nan 133.7092 0.0000 nan 100.00%
0+ 0 nan nan 130.0630 0.0000 nan 100.00%
0+ 0 nan nan 108.6480 0.0000 nan 100.00%
0 0 63.9057 16 108.6480 63.9057 141 41.18%
0+ 0 nan nan 82.7575 63.9057 nan 22.78%
0 0 64.7403 26 82.7575 Cuts:20 182 21.77%
0 0 65.2381 26 82.7575 Cuts:24 213 21.17%
0+ 0 nan nan 80.2975 65.2381 nan 18.75%
0 0 66.4607 28 80.2975 Cuts:11 242 17.23%
0 0 66.9430 27 80.2975 Cuts:8 264 16.63%
0 0 67.5291 29 80.2975 Disjcuts:4 284 15.90%
0 0 67.8229 27 80.2975 Disjcuts:2 291 15.54%
0+ 0 nan nan 75.5164 67.8229 nan 10.19%
0+ 0 nan nan 74.1734 67.8229 nan 8.56%
0 2 68.5745 20 74.1734 68.5985 291 7.52%
CPXPARAM_MIP_Cuts_Gomory-Disjunctive:Gomory 2
CPXPARAM_MIP_Cuts_Gomory-Disjunctive:Disjunctive 14
29
Node Left Objective IInf Best_Integer Best_Bound ItCnt Gap
0+ 0 nan nan 133.7092 0.0000 nan 100.00%
0+ 0 nan nan 129.6212 0.0000 nan 100.00%
0+ 0 nan nan 74.5282 0.0000 nan 100.00%
0 0 0.0000 27 74.5282 0.0000 117 100.00%
0+ 0 nan nan 18.1579 0.0000 nan 100.00%
0 0 1.1238 33 18.1579 Cuts:25 220 93.81%
0 0 2.3860 32 18.1579 Cuts:47 261 86.86%
0 0 3.0798 32 18.1579 Cuts:25 289 83.04%
0 0 3.4383 33 18.1579 Cuts:16 316 81.06%
0+ 0 nan nan 17.4179 3.4383 nan 80.26%
0 0 3.7514 31 17.4179 Cuts:22 345 78.46%
0 2 3.7514 31 17.4179 3.7621 345 78.40%
CPXPARAM_MIP_Cuts_Gomory-Disjunctive:Gomory 2
CPXPARAM_MIP_Cuts_Gomory-Disjunctive:Disjunctive 11
30
Node Left Objective IInf Best_Integer Best_Bound ItCnt Gap
0+ 0 nan nan 133.7092 0.0000 nan 100.00%
0+ 0 nan nan 117.3461 0.0000 nan 100.00%
0 0 64.7235 6 117.3461 64.7235 116 44.84%
0+ 0 nan nan 74.6673 64.7235 nan 13.32%
0 0 64.7235 12 74.6673 Cuts:8 134 13.32%
0+ 0 nan nan 73.3941 64.7235 nan 11.81%
0 0 65.1293 19 73.3941 Cuts:8 171 11.26%
0+ 0 nan nan 70.9804 65.1293 nan 8.24%
0 0 66.1129 22 70.9804 Cuts:26 202 6.86%
0 0 66.6016 22 70.9804 Cuts:10 216 6.17%
0 0 67.2672 21 70.9804 Cuts:10 239 5.23%
0 0 67.2742 21 70.9804 Disjcuts:1 241 5.22%
0 2 67.7385 9 70.9804 67.7879 241 4.50%
CPXPARAM_MIP_Cuts_Gomory-Disjunctive:Gomory 6
CPXPARAM_MIP_Cuts_Gomory-Disjunctive:Disjunctive 10
31
Node Left Objective IInf Best_Integer Best_Bound ItCnt Gap
0+ 0 nan nan 133.7092 0.0000 nan 100.00%
0+ 0 nan nan 116.1408 0.0000 nan 100.00%
0 0 0.0000 26 116.1408 0.0000 89 100.00%
0+ 0 nan nan 18.5661 0.0000 nan 100.00%
0 0 0.0000 28 18.5661 Cuts:25 149 100.00%
0 0 0.0000 26 18.5661 Cuts:31 181 100.00%
0+ 0 nan nan 11.1157 0.0000 nan 100.00%
0 0 0.0433 30 11.1157 Cuts:28 272 99.61%
0+ 0 nan nan 8.0784 0.0433 nan 99.46%
0 0 0.5077 31 8.0784 Cuts:27 330 93.72%
0 0 1.0404 31 8.0784 Cuts:19 369 87.12%
0+ 0 nan nan 8.0784 1.0404 nan 87.12%
0 2 1.1236 31 8.0784 1.1854 369 85.33%
CPXPARAM_MIP_Cuts_Gomory-Disjunctive:Gomory 0
CPXPARAM_MIP_Cuts_Gomory-Disjunctive:Disjunctive 13
32
Node Left Objective IInf Best_Integer Best_Bound ItCnt Gap
0+ 0 nan nan 110.7059 0.0000 nan 100.00%
0+ 0 nan nan 95.8126 0.0000 nan 100.00%
0+ 0 nan nan 89.9070 0.0000 nan 100.00%
0 0 40.8280 15 89.9070 40.8280 140 54.59%
0+ 0 nan nan 52.9281 40.8280 nan 22.86%
0 0 42.2109 18 52.9281 Cuts:14 165 20.25%
0+ 0 nan nan 51.4788 42.2109 nan 18.00%
0 0 42.3709 23 51.4788 Cuts:21 194 17.69%
0 0 42.7044 31 51.4788 Cuts:15 220 17.04%
0 0 42.7884 28 51.4788 Disjcuts:9 235 16.88%
0 0 42.9903 29 51.4788 Cuts:6 251 16.49%
0 0 42.9914 30 51.4788 Disjcuts:1 254 16.49%
0+ 0 nan nan 49.9518 42.9914 nan 13.93%
0 2 43.0181 24 49.9518 43.0694 254 13.78%
CPXPARAM_MIP_Cuts_Gomory-Disjunctive:Gomory 2
CPXPARAM_MIP_Cuts_Gomory-Disjunctive:Disjunctive 22
33
Node Left Objective IInf Best_Integer Best_Bound ItCnt Gap
0+ 0 nan nan 110.7059 0.0000 nan 100.00%
0+ 0 nan nan 95.5094 0.0000 nan 100.00%
0 0 0.0000 26 95.5094 0.0000 93 100.00%
0+ 0 nan nan 34.1998 0.0000 nan 100.00%
0 0 0.0000 29 34.1998 Cuts:26 142 100.00%
0+ 0 nan nan 30.5136 0.0000 nan 100.00%
0 0 0.0000 24 30.5136 Cuts:4 152 100.00%
0 0 0.0000 27 30.5136 Cuts:38 189 100.00%
0+ 0 nan nan 27.5052 0.0000 nan 100.00%
0+ 0 nan nan 23.5626 0.0000 nan 100.00%
0 2 0.0000 26 23.5626 0.0000 189 100.00%
CPXPARAM_MIP_Cuts_Gomory-Disjunctive:Gomory 0
CPXPARAM_MIP_Cuts_Gomory-Disjunctive:Disjunctive 0
34
Node Left Objective IInf Best_Integer Best_Bound ItCnt Gap
0+ 0 nan nan 110.7059 0.0000 nan 100.00%
0+ 0 nan nan 77.5207 0.0000 nan 100.00%
0 0 30.3783 14 77.5207 30.3783 127 60.81%
0+ 0 nan nan 55.3937 30.3783 nan 45.16%
0 0 30.6891 26 55.3937 Cuts:15 160 44.60%
0+ 0 nan nan 49.9970 30.6891 nan 38.62%
0 0 32.3212 26 49.9970 Cuts:25 196 35.35%
0 0 33.2241 23 49.9970 Cuts:17 224 33.55%
0 0 34.1483 24 49.9970 Cuts:20 258 31.70%
0+ 0 nan nan 48.3296 34.1483 nan 29.34%
0 0 34.5129 25 48.3296 Cuts:11 282 28.59%
0 0 34.8295 24 48.3296 Disjcuts:4 313 27.93%
0 0 35.1573 23 48.3296 Cuts:5 335 27.26%
0+ 0 nan nan 42.1170 35.1573 nan 16.52%
0+ 0 nan nan 41.9256 35.1573 nan 16.14%
0+ 0 nan nan 41.9256 35.1573 nan 16.14%
0 2 36.0309 17 41.9256 36.0691 335 13.97%
CPXPARAM_MIP_Cuts_Gomory-Disjunctive:Gomory 2
CPXPARAM_MIP_Cuts_Gomory-Disjunctive:Disjunctive 14
35
Node Left Objective IInf Best_Integer Best_Bound ItCnt Gap
0+ 0 nan nan 110.7059 0.0000 nan 100.00%
0+ 0 nan nan 92.0846 0.0000 nan 100.00%
0 0 0.0000 24 92.0846 0.0000 86 100.00%
0+ 0 nan nan 14.7394 0.0000 nan 100.00%
0 0 0.0000 25 14.7394 Cuts:16 136 100.00%
0+ 0 nan nan 11.8459 0.0000 nan 100.00%
0 0 0.0000 29 11.8459 Cuts:42 182 100.00%
0+ 0 nan nan 11.8356 0.0000 nan 100.00%
0+ 0 nan nan 11.3811 0.0000 nan 100.00%
0 2 0.0000 24 11.3811 0.0000 182 100.00%
CPXPARAM_MIP_Cuts_Gomory-Disjunctive:Gomory 0
CPXPARAM_MIP_Cuts_Gomory-Disjunctive:Disjunctive 2
36
Node Left Objective IInf Best_Integer Best_Bound ItCnt Gap
0+ 0 nan nan 123.7135 0.0000 nan 100.00%
0+ 0 nan nan 109.1977 0.0000 nan 100.00%
0+ 0 nan nan 99.0366 0.0000 nan 100.00%
0 0 34.8231 16 99.0366 34.8231 140 64.84%
0+ 0 nan nan 61.2031 34.8231 nan 43.10%
0 0 36.2400 26 61.2031 Cuts:22 182 40.79%
0 0 38.2425 32 61.2031 Cuts:35 235 37.52%
0 0 39.1763 30 61.2031 Cuts:14 261 35.99%
0 0 39.5191 33 61.2031 Cuts:11 292 35.43%
0 0 40.5796 27 61.2031 Cuts:9 328 33.70%
0 0 40.6245 27 61.2031 Fract:1 337 33.62%
0+ 0 nan nan 56.2017 40.6245 nan 27.72%
0 2 40.6245 27 56.2017 40.7145 337 27.56%
CPXPARAM_MIP_Cuts_Gomory-Disjunctive:Gomory 2
CPXPARAM_MIP_Cuts_Gomory-Disjunctive:Disjunctive 15
37
Node Left Objective IInf Best_Integer Best_Bound ItCnt Gap
0+ 0 nan nan 123.7135 0.0000 nan 100.00%
0+ 0 nan nan 109.7704 0.0000 nan 100.00%
0 0 0.0000 29 109.7704 0.0000 88 100.00%
0+ 0 nan nan 44.1875 0.0000 nan 100.00%
0 0 0.0000 24 44.1875 Cuts:7 92 100.00%
0+ 0 nan nan 20.0257 0.0000 nan 100.00%
0 0 0.0000 26 20.0257 Cuts:33 140 100.00%
0+ 0 nan nan 13.0025 0.0000 nan 100.00%
0 2 0.0000 25 13.0025 0.0000 140 100.00%
CPXPARAM_MIP_Cuts_Gomory-Disjunctive:Gomory 0
CPXPARAM_MIP_Cuts_Gomory-Disjunctive:Disjunctive 2
38
Node Left Objective IInf Best_Integer Best_Bound ItCnt Gap
0+ 0 nan nan 123.7135 0.0000 nan 100.00%
0+ 0 nan nan 95.3556 0.0000 nan 100.00%
0 0 42.9033 7 95.3556 42.9033 120 55.01%
0+ 0 nan nan 51.1711 42.9033 nan 16.16%
0 0 42.9033 11 51.1711 Cuts:13 136 16.16%
0+ 0 nan nan 50.3068 42.9033 nan 14.72%
0 0 43.7234 23 50.3068 Cuts:17 172 13.09%
0 0 44.1829 17 50.3068 Cuts:13 198 12.17%
0 0 44.4092 18 50.3068 Cuts:9 214 11.72%
0 0 44.7686 18 50.3068 Cuts:7 226 11.01%
0 0 44.7787 18 50.3068 Disjcuts:1 227 10.99%
0+ 0 nan nan 50.2127 44.7787 nan 10.82%
0+ 0 nan nan 49.2293 44.7787 nan 9.04%
0 2 45.0705 13 49.2293 45.2989 227 7.98%
CPXPARAM_MIP_Cuts_Gomory-Disjunctive:Gomory 5
CPXPARAM_MIP_Cuts_Gomory-Disjunctive:Disjunctive 14
39
Node Left Objective IInf Best_Integer Best_Bound ItCnt Gap
0+ 0 nan nan 123.7135 0.0000 nan 100.00%
0+ 0 nan nan 90.9010 0.0000 nan 100.00%
0 0 0.0000 25 90.9010 0.0000 82 100.00%
0+ 0 nan nan 44.8044 0.0000 nan 100.00%
0 0 0.0000 23 44.8044 Cuts:19 122 100.00%
0+ 0 nan nan 17.9388 0.0000 nan 100.00%
0 0 0.0000 25 17.9388 Cuts:29 174 100.00%
0+ 0 nan nan 13.0435 0.0000 nan 100.00%
0 0 0.0000 19 13.0435 Fract:1 178 100.00%
0 0 0.0000 25 13.0435 Cuts:33 230 100.00%
0+ 0 nan nan 12.4406 0.0000 nan 100.00%
0 2 0.0000 20 12.4406 0.0000 230 100.00%
CPXPARAM_MIP_Cuts_Gomory-Disjunctive:Gomory 2
CPXPARAM_MIP_Cuts_Gomory-Disjunctive:Disjunctive 1
